p cnf 32 39
-1 24 -2 4 20 30 0 
-3 10 -4 2 20 -5 6 17 31 0 
-6 5 17 -7 18 21 22 23 -8 30 0 
-9 32 0 
-1 24 30 0 
-10 3 32 0 
-11 15 32 0 
-3 10 32 0 
-11 15 -12 30 0 
-13 32 0 
-14 32 0 
-15 11 -16 30 0 
-10 3 -16 30 0 
-17 5 6 31 0 
-3 10 -18 7 21 22 23 31 0 
-9 -19 32 0 
-20 2 4 32 0 
-21 7 18 22 23 30 0 
-20 2 4 30 0 
-15 11 32 0 
-22 7 18 21 23 30 0 
-23 7 18 21 22 30 0 
-2 4 20 30 0 
-1 24 32 0 
-2 4 20 -10 3 30 0 
-10 3 30 0 
-7 18 21 22 23 30 0 
-24 1 30 0 
-15 11 -12 30 0 
-2 4 20 -16 30 0 
-25 -16 32 0 
-21 7 18 22 23 -16 30 0 
-26 32 0 
-26 30 0 
-27 31 0 
-28 32 0 
-25 -29 32 0 
-15 11 -29 30 0 
-10 3 -29 30 0 
